(set-info :smt-lib-version 2.6)
(set-logic QF_NIA)
(set-info :source |AProve team, see http://aprove.informatik.rwth-aachen.de/, submitted for SMT-COMP 2014|)
(set-info :category "industrial")
(set-info :status sat)
(declare-fun b__138 () Int)
(declare-fun a__2 () Int)
(declare-fun a__6 () Int)
(declare-fun b__139 () Int)
(declare-fun a__18 () Int)
(declare-fun a__68 () Int)
(declare-fun b__140 () Int)
(declare-fun a__46 () Int)
(declare-fun a__56 () Int)
(declare-fun a__3 () Int)
(declare-fun a__9 () Int)
(declare-fun a__7 () Int)
(declare-fun a__11 () Int)
(declare-fun a__13 () Int)
(declare-fun a__8 () Int)
(declare-fun a__14 () Int)
(declare-fun a__4 () Int)
(declare-fun a__15 () Int)
(declare-fun a__17 () Int)
(declare-fun a__19 () Int)
(declare-fun a__16 () Int)
(declare-fun a__20 () Int)
(declare-fun a__12 () Int)
(declare-fun a__21 () Int)
(declare-fun a__22 () Int)
(declare-fun a__23 () Int)
(declare-fun a__26 () Int)
(declare-fun a__27 () Int)
(declare-fun a__24 () Int)
(declare-fun a__25 () Int)
(declare-fun a__28 () Int)
(declare-fun a__29 () Int)
(declare-fun a__30 () Int)
(declare-fun a__31 () Int)
(declare-fun a__34 () Int)
(declare-fun a__35 () Int)
(declare-fun a__32 () Int)
(declare-fun a__33 () Int)
(declare-fun a__36 () Int)
(declare-fun a__37 () Int)
(declare-fun a__40 () Int)
(declare-fun a__41 () Int)
(declare-fun a__38 () Int)
(declare-fun a__39 () Int)
(declare-fun a__42 () Int)
(declare-fun a__43 () Int)
(declare-fun a__45 () Int)
(declare-fun a__47 () Int)
(declare-fun a__44 () Int)
(declare-fun a__48 () Int)
(declare-fun a__49 () Int)
(declare-fun a__51 () Int)
(declare-fun a__52 () Int)
(declare-fun a__50 () Int)
(declare-fun a__53 () Int)
(declare-fun a__55 () Int)
(declare-fun a__54 () Int)
(declare-fun a__57 () Int)
(declare-fun a__59 () Int)
(declare-fun a__60 () Int)
(declare-fun a__58 () Int)
(declare-fun a__61 () Int)
(declare-fun a__64 () Int)
(declare-fun a__65 () Int)
(declare-fun a__62 () Int)
(declare-fun a__63 () Int)
(declare-fun a__66 () Int)
(declare-fun a__67 () Int)
(declare-fun a__69 () Int)
(declare-fun a__70 () Int)
(declare-fun a__71 () Int)
(declare-fun a__72 () Int)
(declare-fun a__73 () Int)
(declare-fun a__76 () Int)
(declare-fun a__77 () Int)
(declare-fun a__74 () Int)
(declare-fun a__75 () Int)
(declare-fun a__78 () Int)
(declare-fun a__79 () Int)
(declare-fun a__82 () Int)
(declare-fun a__83 () Int)
(declare-fun a__80 () Int)
(declare-fun a__81 () Int)
(declare-fun a__84 () Int)
(declare-fun a__85 () Int)
(declare-fun a__86 () Int)
(declare-fun a__87 () Int)
(declare-fun a__88 () Int)
(declare-fun a__89 () Int)
(declare-fun a__90 () Int)
(declare-fun a__91 () Int)
(declare-fun a__92 () Int)
(declare-fun a__93 () Int)
(declare-fun a__94 () Int)
(declare-fun a__95 () Int)
(declare-fun a__96 () Int)
(declare-fun a__97 () Int)
(declare-fun a__98 () Int)
(declare-fun a__99 () Int)
(declare-fun a__100 () Int)
(declare-fun a__101 () Int)
(declare-fun a__102 () Int)
(declare-fun a__103 () Int)
(declare-fun a__104 () Int)
(declare-fun a__105 () Int)
(declare-fun a__106 () Int)
(declare-fun a__107 () Int)
(declare-fun a__108 () Int)
(declare-fun a__109 () Int)
(declare-fun a__110 () Int)
(declare-fun a__111 () Int)
(declare-fun a__112 () Int)
(declare-fun a__113 () Int)
(declare-fun a__114 () Int)
(declare-fun a__115 () Int)
(declare-fun a__116 () Int)
(declare-fun a__117 () Int)
(declare-fun a__118 () Int)
(declare-fun a__119 () Int)
(declare-fun a__120 () Int)
(declare-fun a__121 () Int)
(declare-fun a__122 () Int)
(declare-fun a__123 () Int)
(declare-fun a__124 () Int)
(declare-fun a__125 () Int)
(declare-fun a__126 () Int)
(declare-fun a__127 () Int)
(declare-fun a__128 () Int)
(declare-fun a__129 () Int)
(declare-fun a__130 () Int)
(declare-fun a__131 () Int)
(declare-fun a__132 () Int)
(declare-fun a__133 () Int)
(declare-fun a__134 () Int)
(declare-fun a__135 () Int)
(declare-fun a__136 () Int)
(declare-fun a__137 () Int)
(declare-fun a__1 () Int)
(declare-fun a__5 () Int)
(declare-fun a__10 () Int)
(assert (and (>= (+ 1 (* (- 0 1) b__138)) 0) (= (+ (* b__138 a__2) (* (- 0 1) a__2)) 0) (= (+ (* b__138 a__6) (* (- 0 1) a__6)) 0) (>= (+ 1 (* (- 0 1) b__139)) 0) (= (+ (* b__139 a__2 a__18) (* (- 0 1) (* a__2 a__18))) 0) (= (+ (* b__139 a__2 a__68) (* (- 0 1) (* a__2 a__68))) 0) (= (+ (* b__139 a__6 a__18) (* (- 0 1) (* a__6 a__18))) 0) (= (+ (* b__139 a__6 a__68) (* (- 0 1) (* a__6 a__68))) 0) (>= (+ 1 (* (- 0 1) b__140)) 0) (= (+ (* b__140 a__2 a__46 a__18) (* (- 0 1) (* a__2 a__46 a__18))) 0) (= (+ (* b__140 a__2 a__46 a__68) (* (- 0 1) (* a__2 a__46 a__68))) 0) (= (+ (* b__140 a__2 a__56 a__18) (* (- 0 1) (* a__2 a__56 a__18))) 0) (= (+ (* b__140 a__2 a__56 a__68) (* (- 0 1) (* a__2 a__56 a__68))) 0) (= (+ (* b__140 a__6 a__46 a__18) (* (- 0 1) (* a__6 a__46 a__18))) 0) (= (+ (* b__140 a__6 a__46 a__68) (* (- 0 1) (* a__6 a__46 a__68))) 0) (= (+ (* b__140 a__6 a__56 a__18) (* (- 0 1) (* a__6 a__56 a__18))) 0) (= (+ (* b__140 a__6 a__56 a__68) (* (- 0 1) (* a__6 a__56 a__68))) 0) (>= (+ a__3 (* (- 0 1) (* a__9 a__6)) (* (- 0 1) a__7)) 0) (>= (+ a__7 (* (- 0 1) a__11)) 0) (>= (+ (* a__13 a__11) (* (- 0 1) (* a__9 a__2)) (* (- 0 1) a__3)) 0) (>= (+ (* b__138 a__8) (* b__138 a__14 a__9) (* (- 0 1) (* b__138 a__4))) 0) (>= (+ (* b__138 a__8) (* b__138 a__15 a__9) (* (- 0 1) (* b__138 a__17)) (* (- 0 1) (* b__138 a__19 a__18))) 0) (>= (+ (* b__138 a__16 a__9) (* (- 0 1) (* b__138 a__20 a__18))) 0) (>= (+ (* b__138 a__8) (* b__138 a__12 a__9) (* (- 0 1) (* b__138 a__21)) (* (- 0 1) (* b__138 a__8 a__22))) 0) (>= (+ (* b__138 a__13 a__9) (* (- 0 1) (* b__138 a__9 a__22))) 0) (>= (+ (* b__138 a__8) (* b__138 a__23 a__9) (* (- 0 1) (* b__138 a__26)) (* (- 0 1) (* b__138 a__8 a__27))) 0) (>= (+ (* b__138 a__24 a__9) (* (- 0 1) (* b__138 a__9 a__27))) 0) (>= (+ (* b__138 a__25 a__9) (* (- 0 1) (* b__138 a__28))) 0) (>= (+ (* b__138 a__8) (* (- 0 1) (* b__138 a__29))) 0) (>= (+ (* b__138 a__9) (* (- 0 1) (* b__138 a__30))) 0) (>= (+ (* b__139 a__19) (* b__139 a__31 a__20) (* (- 0 1) (* b__139 a__34)) (* (- 0 1) (* b__139 a__8 a__35))) 0) (>= (+ (* b__139 a__32 a__20) (* (- 0 1) (* b__139 a__9 a__35))) 0) (>= (+ (* b__139 a__33 a__20) (* (- 0 1) (* b__139 a__36))) 0) (>= (+ (* b__139 a__19) (* b__139 a__37 a__20) (* (- 0 1) (* b__139 a__40)) (* (- 0 1) (* b__139 a__8 a__41))) 0) (>= (+ (* b__139 a__38 a__20) (* (- 0 1) (* b__139 a__9 a__41))) 0) (>= (+ (* b__139 a__39 a__20) (* (- 0 1) (* b__139 a__42))) 0) (>= (+ (* b__139 a__19) (* b__139 a__43 a__20) (* (- 0 1) (* b__139 a__45)) (* (- 0 1) (* b__139 a__47 a__46))) 0) (>= (+ (* b__139 a__44 a__20) (* (- 0 1) (* b__139 a__48 a__46))) 0) (>= (+ (* b__139 a__19) (* b__139 a__49 a__20) (* (- 0 1) (* b__139 a__51)) (* (- 0 1) (* b__139 a__8 a__52))) 0) (>= (+ (* b__139 a__50 a__20) (* (- 0 1) (* b__139 a__9 a__52))) 0) (>= (+ (* b__139 a__19) (* b__139 a__53 a__20) (* (- 0 1) (* b__139 a__55)) (* (- 0 1) (* b__139 a__47 a__56))) 0) (>= (+ (* b__139 a__54 a__20) (* (- 0 1) (* b__139 a__48 a__56))) 0) (>= (+ (* b__139 a__19) (* b__139 a__57 a__20) (* (- 0 1) (* b__139 a__59)) (* (- 0 1) (* b__139 a__19 a__60))) 0) (>= (+ (* b__139 a__58 a__20) (* (- 0 1) (* b__139 a__20 a__60))) 0) (>= (+ (* b__139 a__19) (* b__139 a__61 a__20) (* (- 0 1) (* b__139 a__64)) (* (- 0 1) (* b__139 a__8 a__65))) 0) (>= (+ (* b__139 a__62 a__20) (* (- 0 1) (* b__139 a__9 a__65))) 0) (>= (+ (* b__139 a__63 a__20) (* (- 0 1) (* b__139 a__66))) 0) (>= (+ (* b__138 a__26) (* b__138 a__4 a__27) (* (- 0 1) (* b__138 a__67)) (* (- 0 1) (* b__138 a__19 a__68))) 0) (>= (+ (* b__138 a__28) (* (- 0 1) (* b__138 a__20 a__68))) 0) (>= (+ (* b__139 a__34) (* b__139 a__4 a__35) (* (- 0 1) (* b__139 a__69)) (* (- 0 1) (* b__139 a__19 a__70))) 0) (>= (+ (* b__139 a__36) (* (- 0 1) (* b__139 a__20 a__70))) 0) (>= (+ (* b__139 a__40) (* b__139 a__4 a__41) (* (- 0 1) (* b__139 a__71)) (* (- 0 1) (* b__139 a__19 a__72))) 0) (>= (+ (* b__139 a__42) (* (- 0 1) (* b__139 a__20 a__72))) 0) (>= (+ (* b__140 a__47) (* b__140 a__73 a__48) (* (- 0 1) (* b__140 a__76)) (* (- 0 1) (* b__140 a__19 a__77))) 0) (>= (+ (* b__140 a__74 a__48) (* (- 0 1) (* b__140 a__20 a__77))) 0) (>= (+ (* b__140 a__75 a__48) (* (- 0 1) (* b__140 a__78))) 0) (>= (+ (* b__140 a__47) (* b__140 a__79 a__48) (* (- 0 1) (* b__140 a__82)) (* (- 0 1) (* b__140 a__8 a__83))) 0) (>= (+ (* b__140 a__80 a__48) (* (- 0 1) (* b__140 a__9 a__83))) 0) (>= (+ (* b__140 a__81 a__48) (* (- 0 1) (* b__140 a__84))) 0) (>= (+ (* b__139 a__64) (* b__139 a__4 a__65) (* (- 0 1) (* b__139 a__85)) (* (- 0 1) (* b__139 a__19 a__86))) 0) (>= (+ (* b__139 a__66) (* (- 0 1) (* b__139 a__20 a__86))) 0) (>= (+ (* b__140 a__76) (* b__140 a__4 a__77) (* (- 0 1) (* b__140 a__87)) (* (- 0 1) (* b__140 a__19 a__88))) 0) (>= (+ (* b__140 a__78) (* (- 0 1) (* b__140 a__20 a__88))) 0) (>= (+ (* b__140 a__82) (* b__140 a__4 a__83) (* (- 0 1) (* b__140 a__89)) (* (- 0 1) (* b__140 a__19 a__90))) 0) (>= (+ (* b__140 a__84) (* (- 0 1) (* b__140 a__20 a__90))) 0) (>= (+ (* b__139 a__34) (* (- 0 1) (* b__139 a__91))) 0) (>= (+ (* b__139 a__35) (* (- 0 1) (* b__139 a__92))) 0) (>= (+ (* b__139 a__36) (* (- 0 1) (* b__139 a__93))) 0) (>= (+ (* b__139 a__19) (* b__139 a__94 a__20) (* (- 0 1) (* b__139 a__4))) 0) (>= (+ (* b__139 a__19) (* (- 0 1) (* b__139 a__95))) 0) (>= (+ (* b__139 a__20) (* (- 0 1) (* b__139 a__96))) 0) (>= (+ (* b__138 a__17) (* b__138 a__4 a__18) (* (- 0 1) (* b__138 a__4))) 0) (>= (+ (* b__138 a__17) (* (- 0 1) (* b__138 a__97))) 0) (>= (+ (* b__138 a__18) (* (- 0 1) (* b__138 a__98))) 0) (>= (+ (* b__139 a__40) (* (- 0 1) (* b__139 a__99))) 0) (>= (+ (* b__139 a__41) (* (- 0 1) (* b__139 a__100))) 0) (>= (+ (* b__139 a__42) (* (- 0 1) (* b__139 a__101))) 0) (>= (+ (* b__138 a__21) (* b__138 a__4 a__22) (* (- 0 1) (* b__138 a__4))) 0) (>= (+ (* b__138 a__21) (* (- 0 1) (* b__138 a__102))) 0) (>= (+ (* b__138 a__22) (* (- 0 1) (* b__138 a__103))) 0) (>= (+ (* b__138 a__26) (* (- 0 1) (* b__138 a__104))) 0) (>= (+ (* b__138 a__27) (* (- 0 1) (* b__138 a__105))) 0) (>= (+ (* b__138 a__28) (* (- 0 1) (* b__138 a__106))) 0) (>= (+ (* b__138 a__67) (* b__138 a__4 a__68) (* (- 0 1) (* b__138 a__4))) 0) (>= (+ (* b__138 a__67) (* (- 0 1) (* b__138 a__107))) 0) (>= (+ (* b__138 a__68) (* (- 0 1) (* b__138 a__108))) 0) (>= (+ (* b__140 a__47) (* (- 0 1) (* b__140 a__109))) 0) (>= (+ (* b__140 a__48) (* (- 0 1) (* b__140 a__110))) 0) (>= (+ (* b__139 a__45) (* b__139 a__4 a__46) (* (- 0 1) (* b__139 a__4))) 0) (>= (+ (* b__139 a__45) (* (- 0 1) (* b__139 a__111))) 0) (>= (+ (* b__139 a__46) (* (- 0 1) (* b__139 a__112))) 0) (>= (+ (* b__140 a__76) (* (- 0 1) (* b__140 a__113))) 0) (>= (+ (* b__140 a__77) (* (- 0 1) (* b__140 a__114))) 0) (>= (+ (* b__140 a__78) (* (- 0 1) (* b__140 a__115))) 0) (>= (+ (* b__139 a__51) (* b__139 a__4 a__52) (* (- 0 1) (* b__139 a__4))) 0) (>= (+ (* b__139 a__51) (* (- 0 1) (* b__139 a__116))) 0) (>= (+ (* b__139 a__52) (* (- 0 1) (* b__139 a__117))) 0) (>= (+ (* b__139 a__55) (* b__139 a__4 a__56) (* (- 0 1) (* b__139 a__4))) 0) (>= (+ (* b__139 a__55) (* (- 0 1) (* b__139 a__118))) 0) (>= (+ (* b__139 a__56) (* (- 0 1) (* b__139 a__119))) 0) (>= (+ (* b__140 a__82) (* (- 0 1) (* b__140 a__120))) 0) (>= (+ (* b__140 a__83) (* (- 0 1) (* b__140 a__121))) 0) (>= (+ (* b__140 a__84) (* (- 0 1) (* b__140 a__122))) 0) (>= (+ (* b__140 a__89) (* b__140 a__4 a__90) (* (- 0 1) (* b__140 a__4))) 0) (>= (+ (* b__140 a__89) (* (- 0 1) (* b__140 a__123))) 0) (>= (+ (* b__140 a__90) (* (- 0 1) (* b__140 a__124))) 0) (>= (+ (* b__139 a__59) (* b__139 a__4 a__60) (* (- 0 1) (* b__139 a__4))) 0) (>= (+ (* b__139 a__59) (* (- 0 1) (* b__139 a__125))) 0) (>= (+ (* b__139 a__60) (* (- 0 1) (* b__139 a__126))) 0) (>= (+ (* b__139 a__64) (* (- 0 1) (* b__139 a__127))) 0) (>= (+ (* b__139 a__65) (* (- 0 1) (* b__139 a__128))) 0) (>= (+ (* b__139 a__66) (* (- 0 1) (* b__139 a__129))) 0) (>= (+ (* b__139 a__85) (* b__139 a__4 a__86) (* (- 0 1) (* b__139 a__4))) 0) (>= (+ (* b__139 a__85) (* (- 0 1) (* b__139 a__130))) 0) (>= (+ (* b__139 a__86) (* (- 0 1) (* b__139 a__131))) 0) (>= (+ (* b__140 a__87) (* b__140 a__4 a__88) (* (- 0 1) (* b__140 a__4))) 0) (>= (+ (* b__140 a__87) (* (- 0 1) (* b__140 a__132))) 0) (>= (+ (* b__140 a__88) (* (- 0 1) (* b__140 a__133))) 0) (>= (+ (* b__139 a__71) (* b__139 a__4 a__72) (* (- 0 1) (* b__139 a__4))) 0) (>= (+ (* b__139 a__71) (* (- 0 1) (* b__139 a__134))) 0) (>= (+ (* b__139 a__72) (* (- 0 1) (* b__139 a__135))) 0) (>= (+ (* b__139 a__69) (* b__139 a__4 a__70) (* (- 0 1) (* b__139 a__4))) 0) (>= (+ (* b__139 a__69) (* (- 0 1) (* b__139 a__136))) 0) (>= (+ (* b__139 a__70) (* (- 0 1) (* b__139 a__137))) 0) (>= (+ a__1 (* a__4 a__2) (* (- 0 1) a__5) (* (- 0 1) (* a__8 a__6))) 0) (>= (+ a__5 (* a__4 a__6) (* (- 0 1) a__10)) 0) (>= (+ a__10 (* a__12 a__11) (* (- 0 1) a__1) (* (- 0 1) (* a__8 a__2))) 0) (not (and (= (+ a__1 (* a__4 a__2) (* (- 0 1) a__5) (* (- 0 1) (* a__8 a__6))) 0) (= (+ a__5 (* a__4 a__6) (* (- 0 1) a__10)) 0) (= (+ a__10 (* a__12 a__11) (* (- 0 1) a__1) (* (- 0 1) (* a__8 a__2))) 0))) (>= b__138 0) (>= 1 b__138) (>= a__2 0) (>= a__6 0) (>= b__139 0) (>= 1 b__139) (>= a__18 0) (>= a__68 0) (>= b__140 0) (>= 1 b__140) (>= a__46 0) (>= a__56 0) (>= a__3 0) (>= a__9 0) (>= a__7 0) (>= a__11 0) (>= a__13 0) (>= a__8 0) (>= a__14 0) (>= a__4 0) (>= a__15 0) (>= a__17 0) (>= a__19 0) (>= a__16 0) (>= a__20 0) (>= a__12 0) (>= a__21 0) (>= a__22 0) (>= a__23 0) (>= a__26 0) (>= a__27 0) (>= a__24 0) (>= a__25 0) (>= a__28 0) (>= a__29 0) (>= a__30 0) (>= a__31 0) (>= a__34 0) (>= a__35 0) (>= a__32 0) (>= a__33 0) (>= a__36 0) (>= a__37 0) (>= a__40 0) (>= a__41 0) (>= a__38 0) (>= a__39 0) (>= a__42 0) (>= a__43 0) (>= a__45 0) (>= a__47 0) (>= a__44 0) (>= a__48 0) (>= a__49 0) (>= a__51 0) (>= a__52 0) (>= a__50 0) (>= a__53 0) (>= a__55 0) (>= a__54 0) (>= a__57 0) (>= a__59 0) (>= a__60 0) (>= a__58 0) (>= a__61 0) (>= a__64 0) (>= a__65 0) (>= a__62 0) (>= a__63 0) (>= a__66 0) (>= a__67 0) (>= a__69 0) (>= a__70 0) (>= a__71 0) (>= a__72 0) (>= a__73 0) (>= a__76 0) (>= a__77 0) (>= a__74 0) (>= a__75 0) (>= a__78 0) (>= a__79 0) (>= a__82 0) (>= a__83 0) (>= a__80 0) (>= a__81 0) (>= a__84 0) (>= a__85 0) (>= a__86 0) (>= a__87 0) (>= a__88 0) (>= a__89 0) (>= a__90 0) (>= a__91 0) (>= a__92 0) (>= a__93 0) (>= a__94 0) (>= a__95 0) (>= a__96 0) (>= a__97 0) (>= a__98 0) (>= a__99 0) (>= a__100 0) (>= a__101 0) (>= a__102 0) (>= a__103 0) (>= a__104 0) (>= a__105 0) (>= a__106 0) (>= a__107 0) (>= a__108 0) (>= a__109 0) (>= a__110 0) (>= a__111 0) (>= a__112 0) (>= a__113 0) (>= a__114 0) (>= a__115 0) (>= a__116 0) (>= a__117 0) (>= a__118 0) (>= a__119 0) (>= a__120 0) (>= a__121 0) (>= a__122 0) (>= a__123 0) (>= a__124 0) (>= a__125 0) (>= a__126 0) (>= a__127 0) (>= a__128 0) (>= a__129 0) (>= a__130 0) (>= a__131 0) (>= a__132 0) (>= a__133 0) (>= a__134 0) (>= a__135 0) (>= a__136 0) (>= a__137 0) (>= a__1 0) (>= a__5 0) (>= a__10 0)))
(assert (<= a__1 100))
(assert (<= a__10 100))
(assert (<= a__100 100))
(assert (<= a__101 100))
(assert (<= a__102 100))
(assert (<= a__103 100))
(assert (<= a__104 100))
(assert (<= a__105 100))
(assert (<= a__106 100))
(assert (<= a__107 100))
(assert (<= a__108 100))
(assert (<= a__109 100))
(assert (<= a__11 100))
(assert (<= a__110 100))
(assert (<= a__111 100))
(assert (<= a__112 100))
(assert (<= a__113 100))
(assert (<= a__114 100))
(assert (<= a__115 100))
(assert (<= a__116 100))
(assert (<= a__117 100))
(assert (<= a__118 100))
(assert (<= a__119 100))
(assert (<= a__12 100))
(assert (<= a__120 100))
(assert (<= a__121 100))
(assert (<= a__122 100))
(assert (<= a__123 100))
(assert (<= a__124 100))
(assert (<= a__125 100))
(assert (<= a__126 100))
(assert (<= a__127 100))
(assert (<= a__128 100))
(assert (<= a__129 100))
(assert (<= a__13 100))
(assert (<= a__130 100))
(assert (<= a__131 100))
(assert (<= a__132 100))
(assert (<= a__133 100))
(assert (<= a__134 100))
(assert (<= a__135 100))
(assert (<= a__136 100))
(assert (<= a__137 100))
(assert (<= a__14 100))
(assert (<= a__15 100))
(assert (<= a__16 100))
(assert (<= a__17 100))
(assert (<= a__18 100))
(assert (<= a__19 100))
(assert (<= a__2 100))
(assert (<= a__20 100))
(assert (<= a__21 100))
(assert (<= a__22 100))
(assert (<= a__23 100))
(assert (<= a__24 100))
(assert (<= a__25 100))
(assert (<= a__26 100))
(assert (<= a__27 100))
(assert (<= a__28 100))
(assert (<= a__29 100))
(assert (<= a__3 100))
(assert (<= a__30 100))
(assert (<= a__31 100))
(assert (<= a__32 100))
(assert (<= a__33 100))
(assert (<= a__34 100))
(assert (<= a__35 100))
(assert (<= a__36 100))
(assert (<= a__37 100))
(assert (<= a__38 100))
(assert (<= a__39 100))
(assert (<= a__4 100))
(assert (<= a__40 100))
(assert (<= a__41 100))
(assert (<= a__42 100))
(assert (<= a__43 100))
(assert (<= a__44 100))
(assert (<= a__45 100))
(assert (<= a__46 100))
(assert (<= a__47 100))
(assert (<= a__48 100))
(assert (<= a__49 100))
(assert (<= a__5 100))
(assert (<= a__50 100))
(assert (<= a__51 100))
(assert (<= a__52 100))
(assert (<= a__53 100))
(assert (<= a__54 100))
(assert (<= a__55 100))
(assert (<= a__56 100))
(assert (<= a__57 100))
(assert (<= a__58 100))
(assert (<= a__59 100))
(assert (<= a__6 100))
(assert (<= a__60 100))
(assert (<= a__61 100))
(assert (<= a__62 100))
(assert (<= a__63 100))
(assert (<= a__64 100))
(assert (<= a__65 100))
(assert (<= a__66 100))
(assert (<= a__67 100))
(assert (<= a__68 100))
(assert (<= a__69 100))
(assert (<= a__7 100))
(assert (<= a__70 100))
(assert (<= a__71 100))
(assert (<= a__72 100))
(assert (<= a__73 100))
(assert (<= a__74 100))
(assert (<= a__75 100))
(assert (<= a__76 100))
(assert (<= a__77 100))
(assert (<= a__78 100))
(assert (<= a__79 100))
(assert (<= a__8 100))
(assert (<= a__80 100))
(assert (<= a__81 100))
(assert (<= a__82 100))
(assert (<= a__83 100))
(assert (<= a__84 100))
(assert (<= a__85 100))
(assert (<= a__86 100))
(assert (<= a__87 100))
(assert (<= a__88 100))
(assert (<= a__89 100))
(assert (<= a__9 100))
(assert (<= a__90 100))
(assert (<= a__91 100))
(assert (<= a__92 100))
(assert (<= a__93 100))
(assert (<= a__94 100))
(assert (<= a__95 100))
(assert (<= a__96 100))
(assert (<= a__97 100))
(assert (<= a__98 100))
(assert (<= a__99 100))
(check-sat)
;;(get-assignment)
;;(get-model)
(exit)
